30
Coordinates from ORCA-job me6bzgeo1 E -466.513787426040
  C          -3.36192422353535      1.99541006035222     -0.03927480726506
  C          -2.42538434329738      0.90169221503960      0.07657653824939
  C          -2.77146385013582     -0.54000680064308      0.06949217406038
  C          -3.16691192375233      4.54591278476476     -0.54485762626277
  C          -2.16148290265136      1.94670680599024     -1.22619622317248
  C          -1.08938226182478      1.44525570771098     -0.02294612500862
  C           0.15897072349420      0.65322139994778     -0.14351736764324
  C          -4.83139826030168      1.86414990299451     -0.18865400605313
  C          -1.19982867695500      2.87648993242572     -0.18886807076668
  C          -2.60411380125560      3.21593044931550     -0.20634346456948
  C          -0.08628585418067      3.79771709123312     -0.51817940491013
  H          -0.40194528659799      4.63027033256126     -1.15911912267309
  H           0.26471997911055      4.23115720987973      0.43549595089931
  H           0.76686365779492      3.28363701576519     -0.97752947112696
  H          -0.01733846771943     -0.35509465465049     -0.53762312651628
  H           0.92038478627396      1.15507470498379     -0.75310370257485
  H           0.57094680569856      0.54226751538907      0.87518442831161
  H          -3.76165777656759     -0.73581479932247     -0.35934616362285
  H          -2.02110135558322     -1.15284793430082     -0.44572250502790
  H          -2.79655880028017     -0.86938800271573      1.12360467068995
  H          -5.12832593754624      0.89392652167555     -0.60571071249102
  H          -5.26744049311608      1.93705339049111      0.82351939360104
  H          -5.26693464061949      2.66994525383538     -0.79206179274287
  H          -4.14886380252018      4.48008612752110     -1.02913630604074
  H          -3.30416771774270      5.08930395800872      0.40680589856789
  H          -2.49197188165756      5.14359884238106     -1.16978535101202
  C          -2.19167538457079      1.76715512379434     -2.69611634400395
  H          -2.04608205475170      0.70781029918418     -2.95651247222740
  H          -1.39289344900138      2.35745465243078     -3.17020019811863
  H          -3.15966280620757      2.09706489395684     -3.10273469054939
